22	3

6	6	6	

0	0	0	0	3	2	3	4	
1	3	5	2	4	5	6	7	8	
1	5	4	3	4	5	6	7	8	
6	5	2	2	4	5	6	7	8	
3	4	1	4	4	9	10	11	12	
3	5	5	4	4	9	10	11	12	
5	3	5	2	4	9	10	11	12	
4	2	4	4	4	9	10	11	12	
4	3	2	2	4	13	14	15	16	
3	3	2	4	4	13	14	15	16	
1	3	3	2	4	13	14	15	16	
2	4	1	4	4	13	14	15	16	
4	1	4	4	3	17	18	19	
1	2	2	2	3	17	18	19	
2	5	5	4	3	17	18	19	
1	1	5	4	3	17	18	19	
1	4	5	4	2	20	21	
5	3	2	3	3	20	21	22	
3	5	3	3	2	20	21	
3	2	4	6	1	22	
2	1	6	2	1	22	
0	0	0	0	0	
